 $CONTRL SCFTYP=RHF MPLEVL=2 $END
 $GUESS GUESS=HUCKEL $END
 $DATA
N2...MP2...Double-zeta basis
Cnv   2

N     7.0    0.0      0.0     0.0
S   7
  1   5909.0000000              0.0011900        
  2    887.5000000              0.0090990        
  3    204.7000000              0.0441450        
  4     59.8400000              0.1504640        
  5     20.0000000              0.3567410        
  6      7.1930000              0.4465330        
  7      2.6860000              0.1456030        
S   2
  1      7.1930000             -0.1604050        
  2      0.7000000              1.0582150        
S   1
  1      0.2133000              1.0000000        
P   4
  1     26.7900000              0.0182540        
  2      5.9560000              0.1164610        
  3      1.7070000              0.3901780        
  4      0.5314000              0.6371020        
P   1
  1      0.1654000              1.0000000

N     7.0    0.0      0.0     1.4
S   7
  1   5909.0000000              0.0011900        
  2    887.5000000              0.0090990        
  3    204.7000000              0.0441450        
  4     59.8400000              0.1504640        
  5     20.0000000              0.3567410        
  6      7.1930000              0.4465330        
  7      2.6860000              0.1456030        
S   2
  1      7.1930000             -0.1604050        
  2      0.7000000              1.0582150        
S   1
  1      0.2133000              1.0000000        
P   4
  1     26.7900000              0.0182540        
  2      5.9560000              0.1164610        
  3      1.7070000              0.3901780        
  4      0.5314000              0.6371020        
P   1
  1      0.1654000              1.0000000

 $END

