 $CONTRL SCFTYP=RHF CITYP=ALDET $END
 $GUESS  GUESS=HUCKEL $END
 $BASIS GBASIS=N31 NGAUSS=6 NDFUNC=1 NPFUNC=1 $END
 $CIDET SZ=0 GROUP=C2V NCORE=0 NACT=20 NELS=4 $END
 $DATA
LiH...HF...6-31G* basis
Cnv   2

Li    3.0    0.0      0.0     0.0
H     1.0    0.0      0.0     4.8
 $END
