 $CONTRL MULT=1 SCFTYP=RHF $END
 $BASIS GBASIS=N31 NGAUSS=6 NDFUNC=1 NPFUNC=1 $END
 $GUESS GUESS=HUCKEL $END
 $DATA
LiH...HF...6-31G* basis
Cnv   2

Li    3.0    0.0      0.0     0.0
H     1.0    0.0      0.0     3.7
 $END
